100
128
22
20
4
26
37
31
46
60
12
13
63
24
58
8
54
10
1
37
60
31
40
16
3
37
56
8
42
13
60
62
27
37
32
11
64
52
16
30
5
30
25
15
25
41
21
27
45
56
27
13
26
29
2
18
30
28
17
19
19
61
59
52
48
62
20
28
59
45
23
31
38
39
60
49
57
56
63
50
23
50
35
31
55
28
53
45
59
27
22
63
54
46
29
23
8
37
44
64
31
31